sat
(
  (define-fun p12_h () Int
    6)
  (define-fun p12_w () Int
    7)
  (define-fun p4_x () Int
    0)
  (define-fun p9_x () Int
    7)
  (define-fun p3_y () Int
    3)
  (define-fun p5_y () Int
    4)
  (define-fun p12_y () Int
    11)
  (define-fun p11_y () Int
    14)
  (define-fun p9_w () Int
    4)
  (define-fun p6_w () Int
    3)
  (define-fun p3_h () Int
    5)
  (define-fun p8_x () Int
    7)
  (define-fun p3_x () Int
    0)
  (define-fun p5_w () Int
    3)
  (define-fun p2_h () Int
    4)
  (define-fun p4_y () Int
    8)
  (define-fun p12_x () Int
    7)
  (define-fun p2_w () Int
    3)
  (define-fun p10_x () Int
    3)
  (define-fun p10_y () Int
    0)
  (define-fun p3_w () Int
    3)
  (define-fun p2_x () Int
    11)
  (define-fun p2_y () Int
    0)
  (define-fun p4_h () Int
    6)
  (define-fun p9_h () Int
    8)
  (define-fun p7_x () Int
    14)
  (define-fun p8_y () Int
    0)
  (define-fun p4_w () Int
    3)
  (define-fun p7_y () Int
    0)
  (define-fun p5_h () Int
    7)
  (define-fun p1_x () Int
    0)
  (define-fun height () Int
    17)
  (define-fun p8_h () Int
    3)
  (define-fun width () Int
    17)
  (define-fun p6_y () Int
    9)
  (define-fun p9_y () Int
    3)
  (define-fun p1_w () Int
    3)
  (define-fun p7_w () Int
    3)
  (define-fun p7_h () Int
    9)
  (define-fun p6_x () Int
    14)
  (define-fun p5_x () Int
    11)
  (define-fun p10_w () Int
    4)
  (define-fun p1_y () Int
    0)
  (define-fun p1_h () Int
    3)
  (define-fun p8_w () Int
    4)
  (define-fun p10_h () Int
    14)
  (define-fun p11_w () Int
    7)
  (define-fun p11_x () Int
    0)
  (define-fun p6_h () Int
    8)
  (define-fun p11_h () Int
    3)
)
